NAME : kroA100-C-3-1-a__wo_all_bias_same_priority_ls20__23519.tour
COMMENT : Length = 23519.000
COMMENT : Generated by evaluate_ctspd.py for wo_all_bias_same_priority_ls20
TYPE : TOUR
DIMENSION : 100
TOUR_SECTION
91
32
11
15
17
59
74
21
72
36
99
38
24
84
10
47
93
28
1
63
90
49
6
92
75
19
53
79
18
94
88
16
22
70
66
4
65
26
97
56
80
31
89
42
8
67
58
61
51
57
7
9
87
25
81
69
68
85
50
73
64
40
54
2
44
82
95
13
76
33
37
5
52
78
96
39
30
48
100
41
71
14
29
3
43
46
34
83
55
12
20
27
86
35
62
60
77
23
98
45
-1
EOF
